4 
5 
6  06 21 36 55 
7  02 10 17 25 32 40 47 55 
8  02 10 17 25 32 40 47 55 
9  02 10 17 25 32 47 
10  02 17 32 47 
11  02 17 32 47 
12  02 17 32 47 
13  02 19 34 49 
14  04 19 34 49 
15  04 19 26 34 42 49 57 
16  04 12 19 27 34 42 49 57 
17  04 12 19 27 34 42 49 57 
18  04 12 19 27 34 42 49 56 
19  04 18 32 47 
20  02 17 32 47 
21  02 14 29 44 59 
22  14 29 44 57 
23  12 28 43 
0 
